6   6   5
5   3 1 1 2 1 3 1  0   3 1 1 2 1 3 1  0   3 1 1 2 1 3 1  2 1 2   3 4 1 5 1 6 1  2 1 2   3 4 1 5 1 6 1  2 3 4 
5   3 1 1 2 1 3 1  0   3 1 1 2 1 3 1  0   3 1 1 2 1 3 1  2 1 2   3 4 1 5 1 6 1  2 1 2   3 4 1 5 1 6 1  2 3 4 
5   3 1 1 2 1 3 1  0   3 1 1 2 1 3 1  0   3 1 1 2 1 3 1  2 1 2   3 4 1 5 1 6 1  2 1 2   3 4 1 5 1 6 1  2 3 4 
5   3 1 1 2 1 3 1  0   3 1 1 2 1 3 1  0   3 1 1 2 1 3 1  2 1 2   3 4 1 5 1 6 1  2 1 2   3 4 1 5 1 6 1  2 3 4 
5   3 1 1 2 1 3 1  0   3 1 1 2 1 3 1  0   3 1 1 2 1 3 1  2 1 2   3 4 1 5 1 6 1  2 1 2   3 4 1 5 1 6 1  2 3 4 
5   3 1 1 2 1 3 1  0   3 1 1 2 1 3 1  0   3 1 1 2 1 3 1  2 1 2   3 4 1 5 1 6 1  2 1 2   3 4 1 5 1 6 1  2 3 4
1 1 1 1 1
1 1 1 1 1
1 1 1 1 1
1 1 1 1 1
1 1 1 1 1
1 1 1 1 1 